c nIsolatedPIs 0
c maxPI 8
p cnf 62 163
c gate 9 5 6 0
5 -9 0
6 -9 0
-5 -6 9 0
c gate 10 -7 -8 0
-7 -10 0
-8 -10 0
7 8 10 0
c gate 11 9 10 0
9 -11 0
10 -11 0
-9 -10 11 0
c gate 12 1 -2 0
1 -12 0
-2 -12 0
-1 2 12 0
c gate 13 11 12 0
11 -13 0
12 -13 0
-11 -12 13 0
c gate 14 -1 -6 0
-1 -14 0
-6 -14 0
1 6 14 0
c gate 15 2 5 0
2 -15 0
5 -15 0
-2 -5 15 0
c gate 16 10 15 0
10 -16 0
15 -16 0
-10 -15 16 0
c gate 17 14 16 0
14 -17 0
16 -17 0
-14 -16 17 0
c gate 18 -13 -17 0
-13 -18 0
-17 -18 0
13 17 18 0
c gate 19 4 -18 0
4 -19 0
-18 -19 0
-4 18 19 0
c gate 20 -5 -6 0
-5 -20 0
-6 -20 0
5 6 20 0
c gate 21 8 9 0
8 -21 0
9 -21 0
-8 -9 21 0
c gate 22 -20 -21 0
-20 -22 0
-21 -22 0
20 21 22 0
c gate 23 1 8 0
1 -23 0
8 -23 0
-1 -8 23 0
c gate 24 2 -4 0
2 -24 0
-4 -24 0
-2 4 24 0
c gate 25 -7 24 0
-7 -25 0
24 -25 0
7 -24 25 0
c gate 26 -23 25 0
-23 -26 0
25 -26 0
23 -25 26 0
c gate 27 -22 26 0
-22 -27 0
26 -27 0
22 -26 27 0
c gate 28 -19 -27 0
-19 -28 0
-27 -28 0
19 27 28 0
c gate 29 3 -28 0
3 -29 0
-28 -29 0
-3 28 29 0
c gate 30 1 6 0
1 -30 0
6 -30 0
-1 -6 30 0
c gate 31 -14 -30 0
-14 -31 0
-30 -31 0
14 30 31 0
c gate 32 7 -8 0
7 -32 0
-8 -32 0
-7 8 32 0
c gate 33 -3 4 0
-3 -33 0
4 -33 0
3 -4 33 0
c gate 34 32 33 0
32 -34 0
33 -34 0
-32 -33 34 0
c gate 35 5 34 0
5 -35 0
34 -35 0
-5 -34 35 0
c gate 36 31 35 0
31 -36 0
35 -36 0
-31 -35 36 0
c gate 37 -6 32 0
-6 -37 0
32 -37 0
6 -32 37 0
c gate 38 1 3 0
1 -38 0
3 -38 0
-1 -3 38 0
c gate 39 -5 38 0
-5 -39 0
38 -39 0
5 -38 39 0
c gate 40 37 39 0
37 -40 0
39 -40 0
-37 -39 40 0
c gate 41 -3 -4 0
-3 -41 0
-4 -41 0
3 4 41 0
c gate 42 -1 41 0
-1 -42 0
41 -42 0
1 -41 42 0
c gate 43 11 42 0
11 -43 0
42 -43 0
-11 -42 43 0
c gate 44 -40 -43 0
-40 -44 0
-43 -44 0
40 43 44 0
c gate 45 -36 44 0
-36 -45 0
44 -45 0
36 -44 45 0
c gate 46 2 -45 0
2 -46 0
-45 -46 0
-2 45 46 0
c gate 47 20 34 0
20 -47 0
34 -47 0
-20 -34 47 0
c gate 48 -2 5 0
-2 -48 0
5 -48 0
2 -5 48 0
c gate 49 41 48 0
41 -49 0
48 -49 0
-41 -48 49 0
c gate 50 37 49 0
37 -50 0
49 -50 0
-37 -49 50 0
c gate 51 -47 -50 0
-47 -51 0
-50 -51 0
47 50 51 0
c gate 52 -1 -51 0
-1 -52 0
-51 -52 0
1 51 52 0
c gate 53 1 41 0
1 -53 0
41 -53 0
-1 -41 53 0
c gate 54 3 4 0
3 -54 0
4 -54 0
-3 -4 54 0
c gate 55 31 54 0
31 -55 0
54 -55 0
-31 -54 55 0
c gate 56 -53 -55 0
-53 -56 0
-55 -56 0
53 55 56 0
c gate 57 7 8 0
7 -57 0
8 -57 0
-7 -8 57 0
c gate 58 48 57 0
48 -58 0
57 -58 0
-48 -57 58 0
c gate 59 -56 58 0
-56 -59 0
58 -59 0
56 -58 59 0
c gate 60 -52 -59 0
-52 -60 0
-59 -60 0
52 59 60 0
c gate 61 -46 60 0
-46 -61 0
60 -61 0
46 -60 61 0
c gate 62 -29 61 0
-29 -62 0
61 -62 0
29 -61 62 0
c PO
-62 0
